3 3 2
25 1 127 0 137 1 82 2 148 0 50 1 61 0 115 1 7 0 189 2 50 1 73 0 93 2 79 1 101 0 192 2 31 0 195 2 117 0 197 2 149 0 17 1 156 0 127 2 105 1 163 
25 0 115 1 124 2 122 0 23 1 145 0 1 2 182 0 76 2 69 1 199 0 149 2 62 0 45 1 138 2 143 1 113 2 127 0 193 1 8 2 94 1 34 0 7 1 114 0 0 2 49 
25 1 146 0 180 1 25 2 64 0 96 1 195 2 64 0 35 2 163 0 45 1 25 2 76 1 52 2 136 1 169 0 51 2 53 0 121 1 131 2 103 0 9 1 48 0 15 1 62 2 42 

-------------
